CMD:
./solvers/bin/cadical --plain --no-reduce -t 1600 ./data/cnfs//qspiflash_dualflexpress_divthree-p151/qspiflash_dualflexpress_divthree-p151.81.cnf

c --- [ banner ] -------------------------------------------------------------
c 
c CaDiCaL SAT Solver
c Copyright (c) 2016-2024
c A. Biere, M. Fleury, N. Froleyks, K. Fazekas, F. Pollitt, T. Faller
c JKU Linz, University of Freiburg, TU Wien
c 
c Version 2.1.3 5296d3d2a9bf48c154ab2acb5e44625776d821bf
c g++ (Gentoo 12.3.1_p20230526 p2) 12.3.1 20230526 -Wall -Wextra -O3 -DNDEBUG
c Sat Aug 9 07:26:21 PDT 2025 Linux cedar2.int.cedar.computecanada.ca 5.14.0-362.24.2.el9_3.x86_64 x86_64
c 
c --- [ limit ] --------------------------------------------------------------
c 
c setting time limit to 1600 seconds real time (due to '-t 1600')
c 
c --- [ parsing input ] ------------------------------------------------------
c 
c reading DIMACS file from './data/cnfs//qspiflash_dualflexpress_divthree-p151/qspiflash_dualflexpress_divthree-p151.81.cnf'
c opening file to read './data/cnfs//qspiflash_dualflexpress_divthree-p151/qspiflash_dualflexpress_divthree-p151.81.cnf'
c found 'p cnf 244662 714722' header
c parsed 714722 clauses in 0.11 seconds process time
c 
c --- [ options ] ------------------------------------------------------------
c 
c   --compact=false                (different from default 'true')
c   --decompose=false              (different from default 'true')
c   --deduplicate=false            (different from default 'true')
c   --elim=false                   (different from default 'true')
c   --probe=false                  (different from default 'true')
c   --reduce=false                 (different from default 'true')
c   --subsume=false                (different from default 'true')
c   --ternary=false                (different from default 'true')
c   --transred=false               (different from default 'true')
c   --vivify=false                 (different from default 'true')
c 
c --- [ solving ] ------------------------------------------------------------
c 
c time measured in process time since initialization
c 
c  seconds   reductions  redundant  irredundant
c          MB    restarts       trail       variables
c           level   conflicts       glue          remaining
c 
c *  0.11 113  0 0   0    0    0  0% 0 691522 228896 94%
c {  0.15 115  0 0   0    0    0  0% 0 691522 228896 94%
c i  0.17 116 101 0   0   80   71 15% 2 691522 228891 94%
c i  0.18 116 113 0   2  118  102 15% 2 691522 228843 94%
c i  0.22 116 57 0  39  501  460 14% 2 691522 228839 94%
c i  0.22 116 57 0  42  509  467 14% 2 691522 228835 94%
c i  0.27 117 56 0 106  952  878 12% 3 691522 228831 94%
c }  0.28 117 54 0 119 1000  925 12% 3 691522 228831 94%
c [  0.28 117  0 0 119 1000  925  0% 0 691522 228831 94%
c O  0.31 117 605 0 119 1030  953 31% 3 691522 228831 94%
c i  0.31 117 605 0 119 1030  953 31% 3 691522 228821 94%
c i  0.31 117 586 0 119 1031  953 30% 3 691522 228655 93%
c i  0.31 117 550 0 119 1033  954 28% 3 691522 228654 93%
c i  0.32 117 312 0 119 1061  981 21% 3 691522 228650 93%
c i  0.33 117 165 0 119 1154 1070 15% 3 691522 228587 93%
c i  0.35 117 91 0 119 1455 1356 13% 3 691522 228583 93%
c i  0.36 117 89 0 119 1481 1380 13% 3 691522 228578 93%
c i  0.37 117 89 0 119 1548 1443 14% 3 691522 228535 93%
c i  0.38 117 84 0 119 1692 1572 15% 3 691522 228529 93%
c i  0.38 117 83 0 119 1694 1573 15% 3 691522 228505 93%
c 
c  seconds   reductions  redundant  irredundant
c          MB    restarts       trail       variables
c           level   conflicts       glue          remaining
c 
c i  0.39 117 79 0 119 1768 1627 15% 3 691522 228155 93%
c i  0.41 117 74 0 119 1882 1725 15% 4 691522 228151 93%
c i  0.41 117 72 0 119 1918 1755 15% 4 691522 228147 93%
c i  0.43 117 65 0 119 2043 1863 14% 4 691522 228143 93%
c i  0.45 117 63 0 120 2097 1914 14% 4 691522 228137 93%
c i  0.48 117 57 0 120 2254 2044 14% 4 691522 227729 93%
c i  0.49 117 56 0 120 2260 2047 14% 4 691522 227722 93%
c i  0.51 117 53 0 120 2357 2108 14% 4 691522 227718 93%
c i  0.51 117 51 0 120 2419 2165 14% 4 691522 227714 93%
c i  0.57 117 49 0 120 2586 2314 15% 4 691522 227710 93%
c i  0.57 117 49 0 120 2589 2314 15% 4 691522 227704 93%
c i  0.58 117 49 0 120 2618 2340 15% 4 691522 227700 93%
c i  0.60 117 49 0 120 2664 2377 15% 4 691522 227693 93%
c i  0.60 117 48 0 120 2676 2387 15% 4 691522 227683 93%
c i  0.60 117 48 0 120 2686 2395 15% 4 691522 227669 93%
c i  0.61 117 48 0 120 2713 2415 15% 4 691522 227663 93%
c i  0.62 117 46 0 120 2827 2520 15% 4 691522 227657 93%
c i  0.65 117 45 0 120 2948 2630 14% 4 691522 227623 93%
c i  0.65 117 45 0 120 2949 2630 14% 4 691522 227618 93%
c i  0.66 117 45 0 120 2957 2636 14% 4 691522 227589 93%
c 
c  seconds   reductions  redundant  irredundant
c          MB    restarts       trail       variables
c           level   conflicts       glue          remaining
c 
c i  0.66 117 45 0 120 2974 2644 14% 4 691522 227579 93%
c ]  0.67 117 44 0 120 3000 2669 14% 4 691522 227579 93%
c {  0.67 117 54 0 120 3000 2669 12% 3 691522 227579 93%
c F  0.68 117 55 0 123 3032 2690 12% 3 691522 227579 93%
c i  0.70 117 50 0 151 3155 2800 12% 3 691522 227429 93%
c i  0.73 117 47 0 178 3277 2912 12% 3 691522 227386 93%
c i  0.73 117 47 0 178 3283 2914 12% 3 691522 227343 93%
c i  0.73 117 47 0 180 3289 2918 12% 3 691522 227330 93%
c i  0.74 117 48 0 183 3350 2946 12% 3 691522 227324 93%
c i  0.74 117 48 0 184 3351 2946 12% 3 691522 227319 93%
c i  0.74 117 47 0 187 3368 2957 12% 3 691522 227093 93%
c i  0.75 117 47 0 187 3371 2959 12% 3 691522 227067 93%
c i  0.75 117 47 0 187 3378 2965 12% 3 691522 227019 93%
c i  0.75 117 47 0 187 3380 2966 12% 3 691522 226992 93%
c i  0.75 117 47 0 187 3384 2969 12% 3 691522 226988 93%
c i  0.75 117 47 0 187 3386 2970 12% 3 691522 226937 93%
c i  0.75 117 47 0 187 3391 2974 12% 3 691522 226932 93%
c i  0.75 117 47 0 187 3392 2974 12% 3 691522 226927 93%
c i  0.75 117 46 0 187 3394 2975 12% 3 691522 226916 93%
c i  0.75 117 46 0 187 3400 2979 12% 3 691522 226906 93%
c 
c  seconds   reductions  redundant  irredundant
c          MB    restarts       trail       variables
c           level   conflicts       glue          remaining
c 
c i  0.75 117 46 0 187 3413 2989 12% 3 691522 226902 93%
c i  0.75 117 46 0 187 3421 2995 12% 3 691522 226757 93%
c i  0.75 117 46 0 187 3427 3000 12% 3 691522 226756 93%
c i  0.75 117 45 0 187 3428 3000 12% 3 691522 226755 93%
c i  0.75 117 45 0 187 3429 3000 12% 3 691522 226754 93%
c i  0.75 117 45 0 187 3437 3004 12% 3 691522 225105 92%
c }  0.75 117 45 0 187 3439 3004 12% 3 691522 225023 92%
c 0  0.75 117 45 0 187 3439 3004 12% 3 691522 225023 92%
c 
c --- [ result ] -------------------------------------------------------------
c 
s UNSATISFIABLE
c 
c --- [ run-time profiling ] -------------------------------------------------
c 
c process time taken by individual solving procedures
c (percentage relative to process time for solving)
c 
c         0.64   99.98% search
c         0.38   59.97% stable
c         0.21   33.46% unstable
c         0.11   16.82% parse
c         0.04    6.55% lucky
c         0.00    0.00% simplify
c   =================================
c         0.64   85.54% solve
c 
c last line shows process time for solving
c (percentage relative to total process time)
c 
c --- [ statistics ] ---------------------------------------------------------
c 
c chronological:              1712        49.78 %  of conflicts
c conflicts:                  3439      5358.81    per second
c decisions:                 14964     23317.60    per second
c fixed:                     19605         8.01 %  of all variables
c learned:                    3253        94.59 %  per conflict
c learned_lits:              45556       100.00 %  learned literals
c minimized:                     0         0.00 %  learned literals
c shrunken:                   9379        20.59 %  learned literals
c minishrunken:               5936        13.03 %  learned literals
c otfs:                         39         1.13 %  of conflict
c propagations:            9330025        14.54 M  per second
c rephased:                      2      1719.50    interval
c restarts:                    187        18.39    interval
c stabilizing:                   1        58.16 %  of conflicts
c subsumed:                    187         0.03 %  of all clauses
c strengthened:                 39         0.01 %  of all clauses
c 
c seconds are measured in process time for solving
c 
c --- [ resources ] ----------------------------------------------------------
c 
c total process time since initialization:         0.75    seconds
c total real time since initialization:            0.76    seconds
c maximum resident set size of process:          116.62    MB
c 
c --- [ shutting down ] ------------------------------------------------------
c 
c exit 20
